SCIP version 5.0.0 [precision: 8 byte] [memory: block] [mode: optimized] [LP solver: NONE] [GitHash: 3bbd232]
Copyright (C) 2002-2017 Konrad-Zuse-Zentrum fuer Informationstechnik Berlin (ZIB)

External codes: 
  Readline EditLine w  GNU library for command line editing (gnu.org/s/readline)
  CppAD 20160000.1     Algorithmic Differentiation of C++ algorithms developed by B. Bell (www.coin-or.org/CppAD)
  ZLIB 1.2.5           General purpose compression library by J. Gailly and M. Adler (zlib.net)
  GMP 6.1.2            GNU Multiple Precision Arithmetic Library developed by T. Granlund (gmplib.org)

user parameter file <scip.set> not found - using default parameters

read problem <../../Split_data/output/spectf/2/4_sample_spectf.logreg>
============

File name	:	../../Split_data/output/spectf/2/4_sample_spectf.logreg
Problem name 	:	4_sample_spectf
Number of data	:	214
Number of var	:	44
The given data has linear independence

[dim=1] time: 0.00788
[dim=2] time: 0.016327
[dim=3] time: 0.024623
[dim=4] time: 0.031084
[dim=5] time: 0.038135
[dim=6] time: 0.044635
[dim=7] time: 0.051154
[dim=8] time: 0.057026
[dim=9] time: 0.063331
[dim=10] Time of forward = 0.069386sec.
AIC: 149.133
k: 9

[dim=44] time: 0.033399
[dim=43] time: 0.049395
[dim=42] time: 0.065323
[dim=41] time: 0.081114
[dim=40] time: 0.096722
[dim=39] time: 0.108731
[dim=38] time: 0.119911
[dim=37] time: 0.134217
[dim=36] time: 0.146661
[dim=35] time: 0.15701
[dim=34] time: 0.170463
[dim=33] time: 0.183091
[dim=32] time: 0.194292
[dim=31] time: 0.204208
[dim=30] time: 0.214751
[dim=29] time: 0.224815
[dim=28] time: 0.23363
[dim=27] time: 0.24203
[dim=26] time: 0.250862
[dim=25] time: 0.259619
[dim=24] time: 0.266951
[dim=23] time: 0.273848
[dim=22] time: 0.28092
[dim=21] time: 0.287885
[dim=20] time: 0.294692
[dim=19] time: 0.29984
[dim=18] time: 0.305407
[dim=17] time: 0.310446
[dim=16] time: 0.315059
[dim=15] time: 0.318685
[dim=14] time: 0.322008
[dim=13] Time of backward = 0.325881sec.
AIC: 147.211
k: 14
